problem_generation/data/GISP/train/er_n=67_m=1288_p=0.60_SET2_setparam=100.00_alpha=0.50_112.lp
maximize
OBJ:100x0 + 100x1 + 100x2 + 100x3 + 100x4 + 100x5 + 100x6 + 100x7 + 100x8 + 100x9 + 100x10 + 100x11 + 100x12 + 100x13 + 100x14 + 100x15 + 100x16 + 100x17 + 100x18 + 100x19 + 100x20 + 100x21 + 100x22 + 100x23 + 100x24 + 100x25 + 100x26 + 100x27 + 100x28 + 100x29 + 100x30 + 100x31 + 100x32 + 100x33 + 100x34 + 100x35 + 100x36 + 100x37 + 100x38 + 100x39 + 100x40 + 100x41 + 100x42 + 100x43 + 100x44 + 100x45 + 100x46 + 100x47 + 100x48 + 100x49 + 100x50 + 100x51 + 100x52 + 100x53 + 100x54 + 100x55 + 100x56 + 100x57 + 100x58 + 100x59 + 100x60 + 100x61 + 100x62 + 100x63 + 100x64 + 100x65 + 100x66 - y47_53 - y15_30 - y26_30 - y55_66 - y36_62 - y47_62 - y59_64 - y17_58 - y29_41 - y8_18 - y21_37 - y0_14 - y6_48 - y11_14 - y21_46 - y29_50 - y0_23 - y6_57 - y41_42 - y44_47 - y2_41 - y25_52 - y3_24 - y14_24 - y32_60 - y3_33 - y22_46 - y24_65 - y3_42 - y15_16 - y36_48 - y47_48 - y18_21 - y36_57 - y17_53 - y28_53 - y0_9 - y6_43 - y6_52 - y29_63 - y21_59 - y10_22 - y10_31 - y10_49 - y25_47 - y22_23 - y51_59 - y2_54 - y3_28 - y14_28 - y35_60 - y55_56 - y17_39 - y7_16 - y36_61 - y5_55 - y17_57 - y29_31 - y9_62 - y21_27 - y29_40 - y29_49 - y10_17 - y2_31 - y10_44 - y2_40 - y3_14 - y35_46 - y1_53 - y35_55 - y24_64 - y35_64 - y17_25 - y36_47 - y17_43 - y36_56 - y5_50 - y6_15 - y36_65 - y5_59 - y17_61 - y21_22 - y50_58 - y6_33 - y29_35 - y9_66 - y29_44 - y40_44 - y21_49 - y39_48 - y39_57 - y20_53 - y10_30 - y39_66 - y2_26 - y54_64 - y23_58 - y32_36 - y13_32 - y24_32 - y51_58 - y3_18 - y16_37 - y16_46 - y1_57 - y13_59 - y35_59 - y16_55 - y1_66 - y16_64 - y36_51 - y9_34 - y5_54 - y6_19 - y17_56 - y6_28 - y58_66 - y21_26 - y21_35 - y30_65 - y10_16 - y2_12 - y39_61 - y12_44 - y62_63 - y54_59 - y12_53 - y23_53 - y20_66 - y31_66 - y12_62 - y51_53 - y35_36 - y32_49 - y24_45 - y16_50 - y1_61 - y35_63 - y5_22 - y57_60 - y5_31 - y6_14 - y6_23 - y21_30 - y0_56 - y10_11 - y20_43 - y20_61 - y23_57 - y16_18 - y4_62 - y43_44 - y35_40 - y16_45 - y46_64 - y49_60 - y17_37 - y5_44 - y6_18 - y50_52 - y8_46 - y19_46 - y30_46 - y42_48 - y30_55 - y42_57 - y42_66 - y0_60 - y12_25 - y39_42 - y31_38 - y4_30 - y20_56 - y23_52 - y1_15 - y31_65 - y4_48 - y12_61 - y1_24 - y53_62 - y24_35 - y4_66 - y37_63 - y15_53 - y38_55 - y9_28 - y38_64 - y49_64 - y18_58 - y19_32 - y27_45 - y8_41 - y19_41 - y27_54 - y11_37 - y50_56 - y11_46 - y12_20 - y20_33 - y0_64 - y12_29 - y20_42 - y31_42 - y12_47 - y1_10 - y45_53 - y64_66 - y1_46 - y3_65 - y5_7 - y15_48 - y26_48 - y38_50 - y7_44 - y57_63 - y15_66 - y18_62 - y27_40 - y30_36 - y11_32 - y8_45 - y30_45 - y27_58 - y0_41 - y12_15 - y19_63 - y11_59 - y12_24 - y39_41 - y12_42 - y23_42 - y1_23 - y24_25 - y16_21 - y45_57 - y45_66 - y3_60 - y37_62 - y15_34 - y5_11 - y18_39 - y15_52 - y38_54 - y26_61 - y7_57 - y8_22 - y18_57 - y19_22 - y0_18 - y18_66 - y8_31 - y19_31 - y8_40 - y19_40 - y27_53 - y0_45 - y11_45 - y20_23 - y11_54 - y4_15 - y23_37 - y4_33 - y25_65 - y34_43 - y34_52 - y37_48 - y22_59 - y3_64 - y15_29 - y7_25 - y18_25 - y38_49 - y18_43 - y7_52 - y11_13 - y18_61 - y19_26 - y0_22 - y11_22 - y8_35 - y30_35 - y11_31 - y8_44 - y19_44 - y0_40 - y41_50 - y52_59 - y4_28 - y33_64 - y22_45 - y37_43 - y56_65 - y37_61 - y18_20 - y18_47 - y0_8 - y8_21 - y11_17 - y29_53 - y40_53 - y48_66 - y29_62 - y4_5 - y25_37 - y33_50 - y44_50 - y25_46 - y2_62 - y25_64 - y34_42 - y3_36 - y3_54 - y15_19 - y14_63 - y36_60 - y47_60 - y26_46 - y29_39 - y6_55 - y29_57 - y40_57 - y11_30 - y41_49 - y4_9 - y33_45 - y52_58 - y2_39 - y25_50 - y3_13 - y2_57 - y2_66 - y37_42 - y3_49 - y14_49 - y7_10 - y15_23 - y36_55 - y26_32 - y18_28 - y47_64 - y28_60 - y18_37 - y9_65 - y6_41 - y21_39 - y6_50 - y11_16 - y6_59 - y29_61 - y40_61 - y2_34 - y44_49 - y10_56 - y51_57 - y3_26 - y13_58 - y14_35 - y16_63 - y15_18 - y17_46 - y28_64 - y21_25 - y29_38 - y48_51 - y21_43 - y21_52 - y10_24 - y2_20 - y33_35 - y33_44 - y3_12 - y32_48 - y43_48 - y2_56 - y32_57 - y13_53 - y24_53 - y14_30 - y32_66 - y35_53 - y24_62 - y35_62 - y43_66 - y16_58 - y7_9 - y55_58 - y28_41 - y47_54 - y9_37 - y17_50 - y36_63 - y58_60 - y9_55 - y50_65 - y6_49 - y40_51 - y21_47 - y6_58 - y2_6 - y10_19 - y39_55 - y2_15 - y39_64 - y25_35 - y32_34 - y32_43 - y32_61 - y1_64 - y24_66 - y35_66 - y28_36 - y17_45 - y9_50 - y5_61 - y6_26 - y21_24 - y29_37 - y6_44 - y42_65 - y21_42 - y39_50 - y2_10 - y39_59 - y20_55 - y12_51 - y23_51 - y2_28 - y12_60 - y4_56 - y32_38 - y24_34 - y3_11 - y32_47 - y35_43 - y1_50 - y35_52 - y32_65 - y1_59 - y5_20 - y9_18 - y28_31 - y5_47 - y6_12 - y9_45 - y2_14 - y62_65 - y12_46 - y23_46 - y31_59 - y4_42 - y12_55 - y1_27 - y51_55 - y1_45 - y24_47 - y35_47 - y1_54 - y46_53 - y65_66 - y5_33 - y28_35 - y9_31 - y6_7 - y9_40 - y27_48 - y50_59 - y27_66 - y20_27 - y31_36 - y10_13 - y39_49 - y20_45 - y20_54 - y31_54 - y54_56 - y13_15 - y31_63 - y12_59 - y4_55 - y1_31 - y24_33 - y34_65 - y45_65 - y1_49 - y24_51 - y16_47 - y1_58 - y5_19 - y17_21 - y9_17 - y28_30 - y57_66 - y9_26 - y7_65 - y8_39 - y30_39 - y27_52 - y19_48 - y30_48 - y50_63 - y8_57 - y20_22 - y11_53 - y19_66 - y20_31 - y23_27 - y4_23 - y20_49 - y13_28 - y24_28 - y45_60 - y24_37 - y35_37 - y16_33 - y57_61 - y9_21 - y7_51 - y38_66 - y7_60 - y8_25 - y18_60 - y19_34 - y0_39 - y8_52 - y30_52 - y42_54 - y8_61 - y19_61 - y30_61 - y60_62 - y31_35 - y11_66 - y31_44 - y1_3 - y4_36 - y34_46 - y4_54 - y16_19 - y22_62 - y14_58 - y26_41 - y49_52 - y7_46 - y38_61 - y0_25 - y8_38 - y27_51 - y11_34 - y8_47 - y11_43 - y20_21 - y0_52 - y12_17 - y41_53 - y4_13 - y23_26 - y41_62 - y12_35 - y4_31 - y1_16 - y22_48 - y34_50 - y53_63 - y34_59 - y56_59 - y14_53 - y22_66 - y14_62 - y26_45 - y7_41 - y15_54 - y15_63 - y27_28 - y8_24 - y19_24 - y0_20 - y11_20 - y8_33 - y19_33 - y0_38 - y11_38 - y19_51 - y0_47 - y11_47 - y41_48 - y41_66 - y4_26 - y44_62 - y2_65 - y1_20 - y14_39 - y14_48 - y37_59 - y7_18 - y3_66 - y14_66 - y15_31 - y59_65 - y26_40 - y38_42 - y26_49 - y8_19 - y48_55 - y27_32 - y19_28 - y11_24 - y40_60 - y8_37 - y21_56 - y30_37 - y21_65 - y0_42 - y12_16 - y33_57 - y44_57 - y1_6 - y2_60 - y22_38 - y34_40 - y15_26 - y18_31 - y15_44 - y26_44 - y7_40 - y8_14 - y48_50 - y0_10 - y8_23 - y40_55 - y11_28 - y29_64 - y41_56 - y25_39 - y2_46 - y25_48 - y10_59 - y22_24 - y33_61 - y44_61 - y3_20 - y14_20 - y22_33 - y22_51 - y7_8 - y3_56
 Subject to
C1: x0+x1 <=1 
C2: x0+x7 <=1 
C3: x0+x8-y0_8 <=1 
C4: x0+x9-y0_9 <=1 
C5: x0+x10-y0_10 <=1 
C6: x0+x13 <=1 
C7: x0+x14-y0_14 <=1 
C8: x0+x15 <=1 
C9: x0+x18-y0_18 <=1 
C10: x0+x19 <=1 
C11: x0+x20-y0_20 <=1 
C12: x0+x22-y0_22 <=1 
C13: x0+x23-y0_23 <=1 
C14: x0+x25-y0_25 <=1 
C15: x0+x28 <=1 
C16: x0+x31 <=1 
C17: x0+x32 <=1 
C18: x0+x34 <=1 
C19: x0+x35 <=1 
C20: x0+x38-y0_38 <=1 
C21: x0+x39-y0_39 <=1 
C22: x0+x40-y0_40 <=1 
C23: x0+x41-y0_41 <=1 
C24: x0+x42-y0_42 <=1 
C25: x0+x45-y0_45 <=1 
C26: x0+x46 <=1 
C27: x0+x47-y0_47 <=1 
C28: x0+x49 <=1 
C29: x0+x50 <=1 
C30: x0+x52-y0_52 <=1 
C31: x0+x53 <=1 
C32: x0+x56-y0_56 <=1 
C33: x0+x57 <=1 
C34: x0+x58 <=1 
C35: x0+x59 <=1 
C36: x0+x60-y0_60 <=1 
C37: x0+x61 <=1 
C38: x0+x62 <=1 
C39: x0+x63 <=1 
C40: x0+x64-y0_64 <=1 
C41: x1+x3-y1_3 <=1 
C42: x1+x4 <=1 
C43: x1+x5 <=1 
C44: x1+x6-y1_6 <=1 
C45: x1+x9 <=1 
C46: x1+x10-y1_10 <=1 
C47: x1+x13 <=1 
C48: x1+x14 <=1 
C49: x1+x15-y1_15 <=1 
C50: x1+x16-y1_16 <=1 
C51: x1+x18 <=1 
C52: x1+x19 <=1 
C53: x1+x20-y1_20 <=1 
C54: x1+x21 <=1 
C55: x1+x23-y1_23 <=1 
C56: x1+x24-y1_24 <=1 
C57: x1+x27-y1_27 <=1 
C58: x1+x30 <=1 
C59: x1+x31-y1_31 <=1 
C60: x1+x35 <=1 
C61: x1+x42 <=1 
C62: x1+x45-y1_45 <=1 
C63: x1+x46-y1_46 <=1 
C64: x1+x48 <=1 
C65: x1+x49-y1_49 <=1 
C66: x1+x50-y1_50 <=1 
C67: x1+x51 <=1 
C68: x1+x53-y1_53 <=1 
C69: x1+x54-y1_54 <=1 
C70: x1+x56 <=1 
C71: x1+x57-y1_57 <=1 
C72: x1+x58-y1_58 <=1 
C73: x1+x59-y1_59 <=1 
C74: x1+x60 <=1 
C75: x1+x61-y1_61 <=1 
C76: x1+x63 <=1 
C77: x1+x64-y1_64 <=1 
C78: x1+x65 <=1 
C79: x1+x66-y1_66 <=1 
C80: x2+x6-y2_6 <=1 
C81: x2+x7 <=1 
C82: x2+x9 <=1 
C83: x2+x10-y2_10 <=1 
C84: x2+x12-y2_12 <=1 
C85: x2+x14-y2_14 <=1 
C86: x2+x15-y2_15 <=1 
C87: x2+x17 <=1 
C88: x2+x19 <=1 
C89: x2+x20-y2_20 <=1 
C90: x2+x23 <=1 
C91: x2+x24 <=1 
C92: x2+x26-y2_26 <=1 
C93: x2+x27 <=1 
C94: x2+x28-y2_28 <=1 
C95: x2+x29 <=1 
C96: x2+x31-y2_31 <=1 
C97: x2+x33 <=1 
C98: x2+x34-y2_34 <=1 
C99: x2+x35 <=1 
C100: x2+x38 <=1 
C101: x2+x39-y2_39 <=1 
C102: x2+x40-y2_40 <=1 
C103: x2+x41-y2_41 <=1 
C104: x2+x45 <=1 
C105: x2+x46-y2_46 <=1 
C106: x2+x52 <=1 
C107: x2+x54-y2_54 <=1 
C108: x2+x56-y2_56 <=1 
C109: x2+x57-y2_57 <=1 
C110: x2+x58 <=1 
C111: x2+x60-y2_60 <=1 
C112: x2+x62-y2_62 <=1 
C113: x2+x64 <=1 
C114: x2+x65-y2_65 <=1 
C115: x2+x66-y2_66 <=1 
C116: x3+x4 <=1 
C117: x3+x5 <=1 
C118: x3+x10 <=1 
C119: x3+x11-y3_11 <=1 
C120: x3+x12-y3_12 <=1 
C121: x3+x13-y3_13 <=1 
C122: x3+x14-y3_14 <=1 
C123: x3+x17 <=1 
C124: x3+x18-y3_18 <=1 
C125: x3+x20-y3_20 <=1 
C126: x3+x24-y3_24 <=1 
C127: x3+x25 <=1 
C128: x3+x26-y3_26 <=1 
C129: x3+x28-y3_28 <=1 
C130: x3+x30 <=1 
C131: x3+x33-y3_33 <=1 
C132: x3+x34 <=1 
C133: x3+x36-y3_36 <=1 
C134: x3+x37 <=1 
C135: x3+x38 <=1 
C136: x3+x42-y3_42 <=1 
C137: x3+x43 <=1 
C138: x3+x45 <=1 
C139: x3+x47 <=1 
C140: x3+x49-y3_49 <=1 
C141: x3+x50 <=1 
C142: x3+x54-y3_54 <=1 
C143: x3+x55 <=1 
C144: x3+x56-y3_56 <=1 
C145: x3+x60-y3_60 <=1 
C146: x3+x62 <=1 
C147: x3+x64-y3_64 <=1 
C148: x3+x65-y3_65 <=1 
C149: x3+x66-y3_66 <=1 
C150: x4+x5-y4_5 <=1 
C151: x4+x6 <=1 
C152: x4+x9-y4_9 <=1 
C153: x4+x12 <=1 
C154: x4+x13-y4_13 <=1 
C155: x4+x15-y4_15 <=1 
C156: x4+x16 <=1 
C157: x4+x21 <=1 
C158: x4+x23-y4_23 <=1 
C159: x4+x26-y4_26 <=1 
C160: x4+x28-y4_28 <=1 
C161: x4+x30-y4_30 <=1 
C162: x4+x31-y4_31 <=1 
C163: x4+x32 <=1 
C164: x4+x33-y4_33 <=1 
C165: x4+x35 <=1 
C166: x4+x36-y4_36 <=1 
C167: x4+x41 <=1 
C168: x4+x42-y4_42 <=1 
C169: x4+x44 <=1 
C170: x4+x47 <=1 
C171: x4+x48-y4_48 <=1 
C172: x4+x51 <=1 
C173: x4+x54-y4_54 <=1 
C174: x4+x55-y4_55 <=1 
C175: x4+x56-y4_56 <=1 
C176: x4+x61 <=1 
C177: x4+x62-y4_62 <=1 
C178: x4+x64 <=1 
C179: x4+x66-y4_66 <=1 
C180: x5+x7-y5_7 <=1 
C181: x5+x8 <=1 
C182: x5+x9 <=1 
C183: x5+x10 <=1 
C184: x5+x11-y5_11 <=1 
C185: x5+x13 <=1 
C186: x5+x17 <=1 
C187: x5+x19-y5_19 <=1 
C188: x5+x20-y5_20 <=1 
C189: x5+x22-y5_22 <=1 
C190: x5+x23 <=1 
C191: x5+x24 <=1 
C192: x5+x25 <=1 
C193: x5+x31-y5_31 <=1 
C194: x5+x32 <=1 
C195: x5+x33-y5_33 <=1 
C196: x5+x34 <=1 
C197: x5+x35 <=1 
C198: x5+x39 <=1 
C199: x5+x42 <=1 
C200: x5+x43 <=1 
C201: x5+x44-y5_44 <=1 
C202: x5+x45 <=1 
C203: x5+x46 <=1 
C204: x5+x47-y5_47 <=1 
C205: x5+x50-y5_50 <=1 
C206: x5+x51 <=1 
C207: x5+x53 <=1 
C208: x5+x54-y5_54 <=1 
C209: x5+x55-y5_55 <=1 
C210: x5+x59-y5_59 <=1 
C211: x5+x60 <=1 
C212: x5+x61-y5_61 <=1 
C213: x5+x62 <=1 
C214: x5+x66 <=1 
C215: x6+x7-y6_7 <=1 
C216: x6+x9 <=1 
C217: x6+x12-y6_12 <=1 
C218: x6+x14-y6_14 <=1 
C219: x6+x15-y6_15 <=1 
C220: x6+x16 <=1 
C221: x6+x18-y6_18 <=1 
C222: x6+x19-y6_19 <=1 
C223: x6+x20 <=1 
C224: x6+x23-y6_23 <=1 
C225: x6+x26-y6_26 <=1 
C226: x6+x28-y6_28 <=1 
C227: x6+x29 <=1 
C228: x6+x31 <=1 
C229: x6+x32 <=1 
C230: x6+x33-y6_33 <=1 
C231: x6+x34 <=1 
C232: x6+x35 <=1 
C233: x6+x40 <=1 
C234: x6+x41-y6_41 <=1 
C235: x6+x43-y6_43 <=1 
C236: x6+x44-y6_44 <=1 
C237: x6+x45 <=1 
C238: x6+x48-y6_48 <=1 
C239: x6+x49-y6_49 <=1 
C240: x6+x50-y6_50 <=1 
C241: x6+x52-y6_52 <=1 
C242: x6+x54 <=1 
C243: x6+x55-y6_55 <=1 
C244: x6+x57-y6_57 <=1 
C245: x6+x58-y6_58 <=1 
C246: x6+x59-y6_59 <=1 
C247: x6+x62 <=1 
C248: x6+x63 <=1 
C249: x6+x66 <=1 
C250: x7+x8-y7_8 <=1 
C251: x7+x9-y7_9 <=1 
C252: x7+x10-y7_10 <=1 
C253: x7+x12 <=1 
C254: x7+x14 <=1 
C255: x7+x15 <=1 
C256: x7+x16-y7_16 <=1 
C257: x7+x18-y7_18 <=1 
C258: x7+x24 <=1 
C259: x7+x25-y7_25 <=1 
C260: x7+x28 <=1 
C261: x7+x34 <=1 
C262: x7+x35 <=1 
C263: x7+x36 <=1 
C264: x7+x38 <=1 
C265: x7+x39 <=1 
C266: x7+x40-y7_40 <=1 
C267: x7+x41-y7_41 <=1 
C268: x7+x44-y7_44 <=1 
C269: x7+x46-y7_46 <=1 
C270: x7+x47 <=1 
C271: x7+x48 <=1 
C272: x7+x49 <=1 
C273: x7+x50 <=1 
C274: x7+x51-y7_51 <=1 
C275: x7+x52-y7_52 <=1 
C276: x7+x54 <=1 
C277: x7+x57-y7_57 <=1 
C278: x7+x59 <=1 
C279: x7+x60-y7_60 <=1 
C280: x7+x61 <=1 
C281: x7+x64 <=1 
C282: x7+x65-y7_65 <=1 
C283: x8+x9 <=1 
C284: x8+x10 <=1 
C285: x8+x11 <=1 
C286: x8+x14-y8_14 <=1 
C287: x8+x15 <=1 
C288: x8+x18-y8_18 <=1 
C289: x8+x19-y8_19 <=1 
C290: x8+x21-y8_21 <=1 
C291: x8+x22-y8_22 <=1 
C292: x8+x23-y8_23 <=1 
C293: x8+x24-y8_24 <=1 
C294: x8+x25-y8_25 <=1 
C295: x8+x26 <=1 
C296: x8+x28 <=1 
C297: x8+x31-y8_31 <=1 
C298: x8+x33-y8_33 <=1 
C299: x8+x34 <=1 
C300: x8+x35-y8_35 <=1 
C301: x8+x36 <=1 
C302: x8+x37-y8_37 <=1 
C303: x8+x38-y8_38 <=1 
C304: x8+x39-y8_39 <=1 
C305: x8+x40-y8_40 <=1 
C306: x8+x41-y8_41 <=1 
C307: x8+x42 <=1 
C308: x8+x43 <=1 
C309: x8+x44-y8_44 <=1 
C310: x8+x45-y8_45 <=1 
C311: x8+x46-y8_46 <=1 
C312: x8+x47-y8_47 <=1 
C313: x8+x51 <=1 
C314: x8+x52-y8_52 <=1 
C315: x8+x53 <=1 
C316: x8+x54 <=1 
C317: x8+x56 <=1 
C318: x8+x57-y8_57 <=1 
C319: x8+x58 <=1 
C320: x8+x61-y8_61 <=1 
C321: x8+x63 <=1 
C322: x8+x66 <=1 
C323: x9+x10 <=1 
C324: x9+x16 <=1 
C325: x9+x17-y9_17 <=1 
C326: x9+x18-y9_18 <=1 
C327: x9+x21-y9_21 <=1 
C328: x9+x26-y9_26 <=1 
C329: x9+x27 <=1 
C330: x9+x28-y9_28 <=1 
C331: x9+x29 <=1 
C332: x9+x31-y9_31 <=1 
C333: x9+x32 <=1 
C334: x9+x33 <=1 
C335: x9+x34-y9_34 <=1 
C336: x9+x37-y9_37 <=1 
C337: x9+x39 <=1 
C338: x9+x40-y9_40 <=1 
C339: x9+x42 <=1 
C340: x9+x45-y9_45 <=1 
C341: x9+x46 <=1 
C342: x9+x49 <=1 
C343: x9+x50-y9_50 <=1 
C344: x9+x53 <=1 
C345: x9+x54 <=1 
C346: x9+x55-y9_55 <=1 
C347: x9+x57 <=1 
C348: x9+x60 <=1 
C349: x9+x61 <=1 
C350: x9+x62-y9_62 <=1 
C351: x9+x64 <=1 
C352: x9+x65-y9_65 <=1 
C353: x9+x66-y9_66 <=1 
C354: x10+x11-y10_11 <=1 
C355: x10+x13-y10_13 <=1 
C356: x10+x15 <=1 
C357: x10+x16-y10_16 <=1 
C358: x10+x17-y10_17 <=1 
C359: x10+x19-y10_19 <=1 
C360: x10+x20 <=1 
C361: x10+x22-y10_22 <=1 
C362: x10+x24-y10_24 <=1 
C363: x10+x25 <=1 
C364: x10+x28 <=1 
C365: x10+x30-y10_30 <=1 
C366: x10+x31-y10_31 <=1 
C367: x10+x33 <=1 
C368: x10+x34 <=1 
C369: x10+x36 <=1 
C370: x10+x37 <=1 
C371: x10+x39 <=1 
C372: x10+x40 <=1 
C373: x10+x44-y10_44 <=1 
C374: x10+x45 <=1 
C375: x10+x46 <=1 
C376: x10+x49-y10_49 <=1 
C377: x10+x51 <=1 
C378: x10+x54 <=1 
C379: x10+x55 <=1 
C380: x10+x56-y10_56 <=1 
C381: x10+x57 <=1 
C382: x10+x59-y10_59 <=1 
C383: x10+x61 <=1 
C384: x10+x64 <=1 
C385: x10+x65 <=1 
C386: x11+x13-y11_13 <=1 
C387: x11+x14-y11_14 <=1 
C388: x11+x16-y11_16 <=1 
C389: x11+x17-y11_17 <=1 
C390: x11+x19 <=1 
C391: x11+x20-y11_20 <=1 
C392: x11+x22-y11_22 <=1 
C393: x11+x24-y11_24 <=1 
C394: x11+x26 <=1 
C395: x11+x28-y11_28 <=1 
C396: x11+x29 <=1 
C397: x11+x30-y11_30 <=1 
C398: x11+x31-y11_31 <=1 
C399: x11+x32-y11_32 <=1 
C400: x11+x33 <=1 
C401: x11+x34-y11_34 <=1 
C402: x11+x36 <=1 
C403: x11+x37-y11_37 <=1 
C404: x11+x38-y11_38 <=1 
C405: x11+x39 <=1 
C406: x11+x40 <=1 
C407: x11+x43-y11_43 <=1 
C408: x11+x44 <=1 
C409: x11+x45-y11_45 <=1 
C410: x11+x46-y11_46 <=1 
C411: x11+x47-y11_47 <=1 
C412: x11+x49 <=1 
C413: x11+x50 <=1 
C414: x11+x52 <=1 
C415: x11+x53-y11_53 <=1 
C416: x11+x54-y11_54 <=1 
C417: x11+x56 <=1 
C418: x11+x57 <=1 
C419: x11+x58 <=1 
C420: x11+x59-y11_59 <=1 
C421: x11+x60 <=1 
C422: x11+x66-y11_66 <=1 
C423: x12+x14 <=1 
C424: x12+x15-y12_15 <=1 
C425: x12+x16-y12_16 <=1 
C426: x12+x17-y12_17 <=1 
C427: x12+x18 <=1 
C428: x12+x20-y12_20 <=1 
C429: x12+x24-y12_24 <=1 
C430: x12+x25-y12_25 <=1 
C431: x12+x26 <=1 
C432: x12+x27 <=1 
C433: x12+x29-y12_29 <=1 
C434: x12+x32 <=1 
C435: x12+x34 <=1 
C436: x12+x35-y12_35 <=1 
C437: x12+x39 <=1 
C438: x12+x42-y12_42 <=1 
C439: x12+x44-y12_44 <=1 
C440: x12+x46-y12_46 <=1 
C441: x12+x47-y12_47 <=1 
C442: x12+x50 <=1 
C443: x12+x51-y12_51 <=1 
C444: x12+x53-y12_53 <=1 
C445: x12+x54 <=1 
C446: x12+x55-y12_55 <=1 
C447: x12+x56 <=1 
C448: x12+x57 <=1 
C449: x12+x59-y12_59 <=1 
C450: x12+x60-y12_60 <=1 
C451: x12+x61-y12_61 <=1 
C452: x12+x62-y12_62 <=1 
C453: x12+x65 <=1 
C454: x12+x66 <=1 
C455: x13+x14 <=1 
C456: x13+x15-y13_15 <=1 
C457: x13+x16 <=1 
C458: x13+x18 <=1 
C459: x13+x21 <=1 
C460: x13+x23 <=1 
C461: x13+x24 <=1 
C462: x13+x25 <=1 
C463: x13+x28-y13_28 <=1 
C464: x13+x32-y13_32 <=1 
C465: x13+x33 <=1 
C466: x13+x35 <=1 
C467: x13+x36 <=1 
C468: x13+x37 <=1 
C469: x13+x43 <=1 
C470: x13+x52 <=1 
C471: x13+x53-y13_53 <=1 
C472: x13+x58-y13_58 <=1 
C473: x13+x59-y13_59 <=1 
C474: x13+x61 <=1 
C475: x13+x62 <=1 
C476: x14+x15 <=1 
C477: x14+x17 <=1 
C478: x14+x19 <=1 
C479: x14+x20-y14_20 <=1 
C480: x14+x21 <=1 
C481: x14+x22 <=1 
C482: x14+x24-y14_24 <=1 
C483: x14+x25 <=1 
C484: x14+x27 <=1 
C485: x14+x28-y14_28 <=1 
C486: x14+x30-y14_30 <=1 
C487: x14+x31 <=1 
C488: x14+x33 <=1 
C489: x14+x35-y14_35 <=1 
C490: x14+x38 <=1 
C491: x14+x39-y14_39 <=1 
C492: x14+x40 <=1 
C493: x14+x41 <=1 
C494: x14+x42 <=1 
C495: x14+x44 <=1 
C496: x14+x46 <=1 
C497: x14+x48-y14_48 <=1 
C498: x14+x49-y14_49 <=1 
C499: x14+x50 <=1 
C500: x14+x52 <=1 
C501: x14+x53-y14_53 <=1 
C502: x14+x57 <=1 
C503: x14+x58-y14_58 <=1 
C504: x14+x59 <=1 
C505: x14+x62-y14_62 <=1 
C506: x14+x63-y14_63 <=1 
C507: x14+x65 <=1 
C508: x14+x66-y14_66 <=1 
C509: x15+x16-y15_16 <=1 
C510: x15+x17 <=1 
C511: x15+x18-y15_18 <=1 
C512: x15+x19-y15_19 <=1 
C513: x15+x20 <=1 
C514: x15+x21 <=1 
C515: x15+x23-y15_23 <=1 
C516: x15+x24 <=1 
C517: x15+x25 <=1 
C518: x15+x26-y15_26 <=1 
C519: x15+x27 <=1 
C520: x15+x28 <=1 
C521: x15+x29-y15_29 <=1 
C522: x15+x30-y15_30 <=1 
C523: x15+x31-y15_31 <=1 
C524: x15+x33 <=1 
C525: x15+x34-y15_34 <=1 
C526: x15+x35 <=1 
C527: x15+x44-y15_44 <=1 
C528: x15+x45 <=1 
C529: x15+x46 <=1 
C530: x15+x48-y15_48 <=1 
C531: x15+x50 <=1 
C532: x15+x51 <=1 
C533: x15+x52-y15_52 <=1 
C534: x15+x53-y15_53 <=1 
C535: x15+x54-y15_54 <=1 
C536: x15+x55 <=1 
C537: x15+x56 <=1 
C538: x15+x57 <=1 
C539: x15+x58 <=1 
C540: x15+x61 <=1 
C541: x15+x63-y15_63 <=1 
C542: x15+x64 <=1 
C543: x15+x66-y15_66 <=1 
C544: x16+x17 <=1 
C545: x16+x18-y16_18 <=1 
C546: x16+x19-y16_19 <=1 
C547: x16+x20 <=1 
C548: x16+x21-y16_21 <=1 
C549: x16+x22 <=1 
C550: x16+x24 <=1 
C551: x16+x30 <=1 
C552: x16+x31 <=1 
C553: x16+x33-y16_33 <=1 
C554: x16+x34 <=1 
C555: x16+x37-y16_37 <=1 
C556: x16+x39 <=1 
C557: x16+x42 <=1 
C558: x16+x43 <=1 
C559: x16+x45-y16_45 <=1 
C560: x16+x46-y16_46 <=1 
C561: x16+x47-y16_47 <=1 
C562: x16+x48 <=1 
C563: x16+x49 <=1 
C564: x16+x50-y16_50 <=1 
C565: x16+x53 <=1 
C566: x16+x55-y16_55 <=1 
C567: x16+x56 <=1 
C568: x16+x58-y16_58 <=1 
C569: x16+x59 <=1 
C570: x16+x63-y16_63 <=1 
C571: x16+x64-y16_64 <=1 
C572: x17+x20 <=1 
C573: x17+x21-y17_21 <=1 
C574: x17+x25-y17_25 <=1 
C575: x17+x27 <=1 
C576: x17+x29 <=1 
C577: x17+x32 <=1 
C578: x17+x37-y17_37 <=1 
C579: x17+x38 <=1 
C580: x17+x39-y17_39 <=1 
C581: x17+x41 <=1 
C582: x17+x42 <=1 
C583: x17+x43-y17_43 <=1 
C584: x17+x44 <=1 
C585: x17+x45-y17_45 <=1 
C586: x17+x46-y17_46 <=1 
C587: x17+x47 <=1 
C588: x17+x50-y17_50 <=1 
C589: x17+x53-y17_53 <=1 
C590: x17+x55 <=1 
C591: x17+x56-y17_56 <=1 
C592: x17+x57-y17_57 <=1 
C593: x17+x58-y17_58 <=1 
C594: x17+x60 <=1 
C595: x17+x61-y17_61 <=1 
C596: x17+x65 <=1 
C597: x18+x20-y18_20 <=1 
C598: x18+x21-y18_21 <=1 
C599: x18+x22 <=1 
C600: x18+x24 <=1 
C601: x18+x25-y18_25 <=1 
C602: x18+x28-y18_28 <=1 
C603: x18+x31-y18_31 <=1 
C604: x18+x34 <=1 
C605: x18+x37-y18_37 <=1 
C606: x18+x38 <=1 
C607: x18+x39-y18_39 <=1 
C608: x18+x40 <=1 
C609: x18+x43-y18_43 <=1 
C610: x18+x45 <=1 
C611: x18+x47-y18_47 <=1 
C612: x18+x49 <=1 
C613: x18+x50 <=1 
C614: x18+x51 <=1 
C615: x18+x53 <=1 
C616: x18+x54 <=1 
C617: x18+x55 <=1 
C618: x18+x56 <=1 
C619: x18+x57-y18_57 <=1 
C620: x18+x58-y18_58 <=1 
C621: x18+x60-y18_60 <=1 
C622: x18+x61-y18_61 <=1 
C623: x18+x62-y18_62 <=1 
C624: x18+x63 <=1 
C625: x18+x64 <=1 
C626: x18+x66-y18_66 <=1 
C627: x19+x21 <=1 
C628: x19+x22-y19_22 <=1 
C629: x19+x24-y19_24 <=1 
C630: x19+x25 <=1 
C631: x19+x26-y19_26 <=1 
C632: x19+x27 <=1 
C633: x19+x28-y19_28 <=1 
C634: x19+x29 <=1 
C635: x19+x30 <=1 
C636: x19+x31-y19_31 <=1 
C637: x19+x32-y19_32 <=1 
C638: x19+x33-y19_33 <=1 
C639: x19+x34-y19_34 <=1 
C640: x19+x36 <=1 
C641: x19+x39 <=1 
C642: x19+x40-y19_40 <=1 
C643: x19+x41-y19_41 <=1 
C644: x19+x43 <=1 
C645: x19+x44-y19_44 <=1 
C646: x19+x45 <=1 
C647: x19+x46-y19_46 <=1 
C648: x19+x47 <=1 
C649: x19+x48-y19_48 <=1 
C650: x19+x51-y19_51 <=1 
C651: x19+x55 <=1 
C652: x19+x61-y19_61 <=1 
C653: x19+x62 <=1 
C654: x19+x63-y19_63 <=1 
C655: x19+x66-y19_66 <=1 
C656: x20+x21-y20_21 <=1 
C657: x20+x22-y20_22 <=1 
C658: x20+x23-y20_23 <=1 
C659: x20+x25 <=1 
C660: x20+x27-y20_27 <=1 
C661: x20+x29 <=1 
C662: x20+x31-y20_31 <=1 
C663: x20+x33-y20_33 <=1 
C664: x20+x35 <=1 
C665: x20+x37 <=1 
C666: x20+x42-y20_42 <=1 
C667: x20+x43-y20_43 <=1 
C668: x20+x45-y20_45 <=1 
C669: x20+x49-y20_49 <=1 
C670: x20+x52 <=1 
C671: x20+x53-y20_53 <=1 
C672: x20+x54-y20_54 <=1 
C673: x20+x55-y20_55 <=1 
C674: x20+x56-y20_56 <=1 
C675: x20+x60 <=1 
C676: x20+x61-y20_61 <=1 
C677: x20+x62 <=1 
C678: x20+x63 <=1 
C679: x20+x64 <=1 
C680: x20+x65 <=1 
C681: x20+x66-y20_66 <=1 
C682: x21+x22-y21_22 <=1 
C683: x21+x24-y21_24 <=1 
C684: x21+x25-y21_25 <=1 
C685: x21+x26-y21_26 <=1 
C686: x21+x27-y21_27 <=1 
C687: x21+x30-y21_30 <=1 
C688: x21+x34 <=1 
C689: x21+x35-y21_35 <=1 
C690: x21+x37-y21_37 <=1 
C691: x21+x38 <=1 
C692: x21+x39-y21_39 <=1 
C693: x21+x40 <=1 
C694: x21+x42-y21_42 <=1 
C695: x21+x43-y21_43 <=1 
C696: x21+x46-y21_46 <=1 
C697: x21+x47-y21_47 <=1 
C698: x21+x48 <=1 
C699: x21+x49-y21_49 <=1 
C700: x21+x51 <=1 
C701: x21+x52-y21_52 <=1 
C702: x21+x55 <=1 
C703: x21+x56-y21_56 <=1 
C704: x21+x57 <=1 
C705: x21+x58 <=1 
C706: x21+x59-y21_59 <=1 
C707: x21+x61 <=1 
C708: x21+x62 <=1 
C709: x21+x65-y21_65 <=1 
C710: x22+x23-y22_23 <=1 
C711: x22+x24-y22_24 <=1 
C712: x22+x26 <=1 
C713: x22+x28 <=1 
C714: x22+x32 <=1 
C715: x22+x33-y22_33 <=1 
C716: x22+x34 <=1 
C717: x22+x36 <=1 
C718: x22+x38-y22_38 <=1 
C719: x22+x43 <=1 
C720: x22+x45-y22_45 <=1 
C721: x22+x46-y22_46 <=1 
C722: x22+x48-y22_48 <=1 
C723: x22+x50 <=1 
C724: x22+x51-y22_51 <=1 
C725: x22+x55 <=1 
C726: x22+x59-y22_59 <=1 
C727: x22+x60 <=1 
C728: x22+x62-y22_62 <=1 
C729: x22+x66-y22_66 <=1 
C730: x23+x26-y23_26 <=1 
C731: x23+x27-y23_27 <=1 
C732: x23+x28 <=1 
C733: x23+x31 <=1 
C734: x23+x32 <=1 
C735: x23+x35 <=1 
C736: x23+x36 <=1 
C737: x23+x37-y23_37 <=1 
C738: x23+x38 <=1 
C739: x23+x40 <=1 
C740: x23+x41 <=1 
C741: x23+x42-y23_42 <=1 
C742: x23+x43 <=1 
C743: x23+x46-y23_46 <=1 
C744: x23+x49 <=1 
C745: x23+x50 <=1 
C746: x23+x51-y23_51 <=1 
C747: x23+x52-y23_52 <=1 
C748: x23+x53-y23_53 <=1 
C749: x23+x54 <=1 
C750: x23+x55 <=1 
C751: x23+x57-y23_57 <=1 
C752: x23+x58-y23_58 <=1 
C753: x23+x59 <=1 
C754: x23+x61 <=1 
C755: x23+x63 <=1 
C756: x23+x66 <=1 
C757: x24+x25-y24_25 <=1 
C758: x24+x26 <=1 
C759: x24+x28-y24_28 <=1 
C760: x24+x29 <=1 
C761: x24+x32-y24_32 <=1 
C762: x24+x33-y24_33 <=1 
C763: x24+x34-y24_34 <=1 
C764: x24+x35-y24_35 <=1 
C765: x24+x37-y24_37 <=1 
C766: x24+x41 <=1 
C767: x24+x43 <=1 
C768: x24+x44 <=1 
C769: x24+x45-y24_45 <=1 
C770: x24+x47-y24_47 <=1 
C771: x24+x48 <=1 
C772: x24+x50 <=1 
C773: x24+x51-y24_51 <=1 
C774: x24+x52 <=1 
C775: x24+x53-y24_53 <=1 
C776: x24+x55 <=1 
C777: x24+x56 <=1 
C778: x24+x57 <=1 
C779: x24+x58 <=1 
C780: x24+x59 <=1 
C781: x24+x60 <=1 
C782: x24+x62-y24_62 <=1 
C783: x24+x64-y24_64 <=1 
C784: x24+x65-y24_65 <=1 
C785: x24+x66-y24_66 <=1 
C786: x25+x26 <=1 
C787: x25+x29 <=1 
C788: x25+x31 <=1 
C789: x25+x32 <=1 
C790: x25+x34 <=1 
C791: x25+x35-y25_35 <=1 
C792: x25+x36 <=1 
C793: x25+x37-y25_37 <=1 
C794: x25+x38 <=1 
C795: x25+x39-y25_39 <=1 
C796: x25+x42 <=1 
C797: x25+x44 <=1 
C798: x25+x45 <=1 
C799: x25+x46-y25_46 <=1 
C800: x25+x47-y25_47 <=1 
C801: x25+x48-y25_48 <=1 
C802: x25+x49 <=1 
C803: x25+x50-y25_50 <=1 
C804: x25+x52-y25_52 <=1 
C805: x25+x53 <=1 
C806: x25+x56 <=1 
C807: x25+x59 <=1 
C808: x25+x61 <=1 
C809: x25+x63 <=1 
C810: x25+x64-y25_64 <=1 
C811: x25+x65-y25_65 <=1 
C812: x25+x66 <=1 
C813: x26+x27 <=1 
C814: x26+x30-y26_30 <=1 
C815: x26+x31 <=1 
C816: x26+x32-y26_32 <=1 
C817: x26+x34 <=1 
C818: x26+x35 <=1 
C819: x26+x38 <=1 
C820: x26+x40-y26_40 <=1 
C821: x26+x41-y26_41 <=1 
C822: x26+x44-y26_44 <=1 
C823: x26+x45-y26_45 <=1 
C824: x26+x46-y26_46 <=1 
C825: x26+x47 <=1 
C826: x26+x48-y26_48 <=1 
C827: x26+x49-y26_49 <=1 
C828: x26+x54 <=1 
C829: x26+x57 <=1 
C830: x26+x61-y26_61 <=1 
C831: x27+x28-y27_28 <=1 
C832: x27+x31 <=1 
C833: x27+x32-y27_32 <=1 
C834: x27+x34 <=1 
C835: x27+x39 <=1 
C836: x27+x40-y27_40 <=1 
C837: x27+x43 <=1 
C838: x27+x44 <=1 
C839: x27+x45-y27_45 <=1 
C840: x27+x48-y27_48 <=1 
C841: x27+x49 <=1 
C842: x27+x51-y27_51 <=1 
C843: x27+x52-y27_52 <=1 
C844: x27+x53-y27_53 <=1 
C845: x27+x54-y27_54 <=1 
C846: x27+x56 <=1 
C847: x27+x58-y27_58 <=1 
C848: x27+x61 <=1 
C849: x27+x63 <=1 
C850: x27+x64 <=1 
C851: x27+x66-y27_66 <=1 
C852: x28+x29 <=1 
C853: x28+x30-y28_30 <=1 
C854: x28+x31-y28_31 <=1 
C855: x28+x35-y28_35 <=1 
C856: x28+x36-y28_36 <=1 
C857: x28+x37 <=1 
C858: x28+x39 <=1 
C859: x28+x40 <=1 
C860: x28+x41-y28_41 <=1 
C861: x28+x42 <=1 
C862: x28+x43 <=1 
C863: x28+x44 <=1 
C864: x28+x45 <=1 
C865: x28+x48 <=1 
C866: x28+x49 <=1 
C867: x28+x51 <=1 
C868: x28+x53-y28_53 <=1 
C869: x28+x54 <=1 
C870: x28+x56 <=1 
C871: x28+x57 <=1 
C872: x28+x60-y28_60 <=1 
C873: x28+x61 <=1 
C874: x28+x64-y28_64 <=1 
C875: x28+x66 <=1 
C876: x29+x31-y29_31 <=1 
C877: x29+x32 <=1 
C878: x29+x33 <=1 
C879: x29+x34 <=1 
C880: x29+x35-y29_35 <=1 
C881: x29+x36 <=1 
C882: x29+x37-y29_37 <=1 
C883: x29+x38-y29_38 <=1 
C884: x29+x39-y29_39 <=1 
C885: x29+x40-y29_40 <=1 
C886: x29+x41-y29_41 <=1 
C887: x29+x43 <=1 
C888: x29+x44-y29_44 <=1 
C889: x29+x46 <=1 
C890: x29+x49-y29_49 <=1 
C891: x29+x50-y29_50 <=1 
C892: x29+x51 <=1 
C893: x29+x52 <=1 
C894: x29+x53-y29_53 <=1 
C895: x29+x56 <=1 
C896: x29+x57-y29_57 <=1 
C897: x29+x61-y29_61 <=1 
C898: x29+x62-y29_62 <=1 
C899: x29+x63-y29_63 <=1 
C900: x29+x64-y29_64 <=1 
C901: x29+x65 <=1 
C902: x30+x31 <=1 
C903: x30+x32 <=1 
C904: x30+x35-y30_35 <=1 
C905: x30+x36-y30_36 <=1 
C906: x30+x37-y30_37 <=1 
C907: x30+x38 <=1 
C908: x30+x39-y30_39 <=1 
C909: x30+x40 <=1 
C910: x30+x44 <=1 
C911: x30+x45-y30_45 <=1 
C912: x30+x46-y30_46 <=1 
C913: x30+x48-y30_48 <=1 
C914: x30+x51 <=1 
C915: x30+x52-y30_52 <=1 
C916: x30+x55-y30_55 <=1 
C917: x30+x59 <=1 
C918: x30+x60 <=1 
C919: x30+x61-y30_61 <=1 
C920: x30+x62 <=1 
C921: x30+x65-y30_65 <=1 
C922: x31+x32 <=1 
C923: x31+x35-y31_35 <=1 
C924: x31+x36-y31_36 <=1 
C925: x31+x37 <=1 
C926: x31+x38-y31_38 <=1 
C927: x31+x40 <=1 
C928: x31+x41 <=1 
C929: x31+x42-y31_42 <=1 
C930: x31+x43 <=1 
C931: x31+x44-y31_44 <=1 
C932: x31+x47 <=1 
C933: x31+x48 <=1 
C934: x31+x54-y31_54 <=1 
C935: x31+x57 <=1 
C936: x31+x59-y31_59 <=1 
C937: x31+x61 <=1 
C938: x31+x62 <=1 
C939: x31+x63-y31_63 <=1 
C940: x31+x64 <=1 
C941: x31+x65-y31_65 <=1 
C942: x31+x66-y31_66 <=1 
C943: x32+x34-y32_34 <=1 
C944: x32+x35 <=1 
C945: x32+x36-y32_36 <=1 
C946: x32+x38-y32_38 <=1 
C947: x32+x42 <=1 
C948: x32+x43-y32_43 <=1 
C949: x32+x46 <=1 
C950: x32+x47-y32_47 <=1 
C951: x32+x48-y32_48 <=1 
C952: x32+x49-y32_49 <=1 
C953: x32+x53 <=1 
C954: x32+x55 <=1 
C955: x32+x56 <=1 
C956: x32+x57-y32_57 <=1 
C957: x32+x58 <=1 
C958: x32+x59 <=1 
C959: x32+x60-y32_60 <=1 
C960: x32+x61-y32_61 <=1 
C961: x32+x62 <=1 
C962: x32+x65-y32_65 <=1 
C963: x32+x66-y32_66 <=1 
C964: x33+x34 <=1 
C965: x33+x35-y33_35 <=1 
C966: x33+x36 <=1 
C967: x33+x42 <=1 
C968: x33+x44-y33_44 <=1 
C969: x33+x45-y33_45 <=1 
C970: x33+x48 <=1 
C971: x33+x50-y33_50 <=1 
C972: x33+x53 <=1 
C973: x33+x54 <=1 
C974: x33+x55 <=1 
C975: x33+x56 <=1 
C976: x33+x57-y33_57 <=1 
C977: x33+x60 <=1 
C978: x33+x61-y33_61 <=1 
C979: x33+x64-y33_64 <=1 
C980: x33+x65 <=1 
C981: x33+x66 <=1 
C982: x34+x35 <=1 
C983: x34+x36 <=1 
C984: x34+x37 <=1 
C985: x34+x40-y34_40 <=1 
C986: x34+x42-y34_42 <=1 
C987: x34+x43-y34_43 <=1 
C988: x34+x46-y34_46 <=1 
C989: x34+x47 <=1 
C990: x34+x50-y34_50 <=1 
C991: x34+x51 <=1 
C992: x34+x52-y34_52 <=1 
C993: x34+x53 <=1 
C994: x34+x57 <=1 
C995: x34+x59-y34_59 <=1 
C996: x34+x61 <=1 
C997: x34+x63 <=1 
C998: x34+x65-y34_65 <=1 
C999: x34+x66 <=1 
C1000: x35+x36-y35_36 <=1 
C1001: x35+x37-y35_37 <=1 
C1002: x35+x38 <=1 
C1003: x35+x39 <=1 
C1004: x35+x40-y35_40 <=1 
C1005: x35+x41 <=1 
C1006: x35+x43-y35_43 <=1 
C1007: x35+x46-y35_46 <=1 
C1008: x35+x47-y35_47 <=1 
C1009: x35+x49 <=1 
C1010: x35+x51 <=1 
C1011: x35+x52-y35_52 <=1 
C1012: x35+x53-y35_53 <=1 
C1013: x35+x55-y35_55 <=1 
C1014: x35+x56 <=1 
C1015: x35+x57 <=1 
C1016: x35+x59-y35_59 <=1 
C1017: x35+x60-y35_60 <=1 
C1018: x35+x61 <=1 
C1019: x35+x62-y35_62 <=1 
C1020: x35+x63-y35_63 <=1 
C1021: x35+x64-y35_64 <=1 
C1022: x35+x65 <=1 
C1023: x35+x66-y35_66 <=1 
C1024: x36+x41 <=1 
C1025: x36+x47-y36_47 <=1 
C1026: x36+x48-y36_48 <=1 
C1027: x36+x50 <=1 
C1028: x36+x51-y36_51 <=1 
C1029: x36+x53 <=1 
C1030: x36+x55-y36_55 <=1 
C1031: x36+x56-y36_56 <=1 
C1032: x36+x57-y36_57 <=1 
C1033: x36+x60-y36_60 <=1 
C1034: x36+x61-y36_61 <=1 
C1035: x36+x62-y36_62 <=1 
C1036: x36+x63-y36_63 <=1 
C1037: x36+x65-y36_65 <=1 
C1038: x37+x39 <=1 
C1039: x37+x41 <=1 
C1040: x37+x42-y37_42 <=1 
C1041: x37+x43-y37_43 <=1 
C1042: x37+x44 <=1 
C1043: x37+x45 <=1 
C1044: x37+x48-y37_48 <=1 
C1045: x37+x56 <=1 
C1046: x37+x58 <=1 
C1047: x37+x59-y37_59 <=1 
C1048: x37+x60 <=1 
C1049: x37+x61-y37_61 <=1 
C1050: x37+x62-y37_62 <=1 
C1051: x37+x63-y37_63 <=1 
C1052: x37+x64 <=1 
C1053: x37+x65 <=1 
C1054: x38+x39 <=1 
C1055: x38+x40 <=1 
C1056: x38+x42-y38_42 <=1 
C1057: x38+x43 <=1 
C1058: x38+x46 <=1 
C1059: x38+x48 <=1 
C1060: x38+x49-y38_49 <=1 
C1061: x38+x50-y38_50 <=1 
C1062: x38+x51 <=1 
C1063: x38+x52 <=1 
C1064: x38+x53 <=1 
C1065: x38+x54-y38_54 <=1 
C1066: x38+x55-y38_55 <=1 
C1067: x38+x56 <=1 
C1068: x38+x58 <=1 
C1069: x38+x59 <=1 
C1070: x38+x61-y38_61 <=1 
C1071: x38+x62 <=1 
C1072: x38+x64-y38_64 <=1 
C1073: x38+x66-y38_66 <=1 
C1074: x39+x40 <=1 
C1075: x39+x41-y39_41 <=1 
C1076: x39+x42-y39_42 <=1 
C1077: x39+x47 <=1 
C1078: x39+x48-y39_48 <=1 
C1079: x39+x49-y39_49 <=1 
C1080: x39+x50-y39_50 <=1 
C1081: x39+x51 <=1 
C1082: x39+x54 <=1 
C1083: x39+x55-y39_55 <=1 
C1084: x39+x57-y39_57 <=1 
C1085: x39+x59-y39_59 <=1 
C1086: x39+x60 <=1 
C1087: x39+x61-y39_61 <=1 
C1088: x39+x62 <=1 
C1089: x39+x64-y39_64 <=1 
C1090: x39+x66-y39_66 <=1 
C1091: x40+x43 <=1 
C1092: x40+x44-y40_44 <=1 
C1093: x40+x47 <=1 
C1094: x40+x49 <=1 
C1095: x40+x51-y40_51 <=1 
C1096: x40+x53-y40_53 <=1 
C1097: x40+x55-y40_55 <=1 
C1098: x40+x56 <=1 
C1099: x40+x57-y40_57 <=1 
C1100: x40+x60-y40_60 <=1 
C1101: x40+x61-y40_61 <=1 
C1102: x40+x62 <=1 
C1103: x41+x42-y41_42 <=1 
C1104: x41+x45 <=1 
C1105: x41+x46 <=1 
C1106: x41+x48-y41_48 <=1 
C1107: x41+x49-y41_49 <=1 
C1108: x41+x50-y41_50 <=1 
C1109: x41+x53-y41_53 <=1 
C1110: x41+x54 <=1 
C1111: x41+x56-y41_56 <=1 
C1112: x41+x57 <=1 
C1113: x41+x58 <=1 
C1114: x41+x61 <=1 
C1115: x41+x62-y41_62 <=1 
C1116: x41+x66-y41_66 <=1 
C1117: x42+x43 <=1 
C1118: x42+x44 <=1 
C1119: x42+x45 <=1 
C1120: x42+x48-y42_48 <=1 
C1121: x42+x50 <=1 
C1122: x42+x51 <=1 
C1123: x42+x52 <=1 
C1124: x42+x54-y42_54 <=1 
C1125: x42+x57-y42_57 <=1 
C1126: x42+x59 <=1 
C1127: x42+x60 <=1 
C1128: x42+x64 <=1 
C1129: x42+x65-y42_65 <=1 
C1130: x42+x66-y42_66 <=1 
C1131: x43+x44-y43_44 <=1 
C1132: x43+x45 <=1 
C1133: x43+x47 <=1 
C1134: x43+x48-y43_48 <=1 
C1135: x43+x53 <=1 
C1136: x43+x54 <=1 
C1137: x43+x55 <=1 
C1138: x43+x56 <=1 
C1139: x43+x58 <=1 
C1140: x43+x60 <=1 
C1141: x43+x63 <=1 
C1142: x43+x64 <=1 
C1143: x43+x66-y43_66 <=1 
C1144: x44+x46 <=1 
C1145: x44+x47-y44_47 <=1 
C1146: x44+x49-y44_49 <=1 
C1147: x44+x50-y44_50 <=1 
C1148: x44+x52 <=1 
C1149: x44+x56 <=1 
C1150: x44+x57-y44_57 <=1 
C1151: x44+x58 <=1 
C1152: x44+x61-y44_61 <=1 
C1153: x44+x62-y44_62 <=1 
C1154: x44+x65 <=1 
C1155: x45+x47 <=1 
C1156: x45+x48 <=1 
C1157: x45+x49 <=1 
C1158: x45+x50 <=1 
C1159: x45+x53-y45_53 <=1 
C1160: x45+x57-y45_57 <=1 
C1161: x45+x60-y45_60 <=1 
C1162: x45+x63 <=1 
C1163: x45+x65-y45_65 <=1 
C1164: x45+x66-y45_66 <=1 
C1165: x46+x51 <=1 
C1166: x46+x52 <=1 
C1167: x46+x53-y46_53 <=1 
C1168: x46+x54 <=1 
C1169: x46+x57 <=1 
C1170: x46+x58 <=1 
C1171: x46+x60 <=1 
C1172: x46+x61 <=1 
C1173: x46+x64-y46_64 <=1 
C1174: x47+x48-y47_48 <=1 
C1175: x47+x51 <=1 
C1176: x47+x53-y47_53 <=1 
C1177: x47+x54-y47_54 <=1 
C1178: x47+x55 <=1 
C1179: x47+x60-y47_60 <=1 
C1180: x47+x61 <=1 
C1181: x47+x62-y47_62 <=1 
C1182: x47+x64-y47_64 <=1 
C1183: x47+x65 <=1 
C1184: x48+x50-y48_50 <=1 
C1185: x48+x51-y48_51 <=1 
C1186: x48+x52 <=1 
C1187: x48+x53 <=1 
C1188: x48+x54 <=1 
C1189: x48+x55-y48_55 <=1 
C1190: x48+x56 <=1 
C1191: x48+x57 <=1 
C1192: x48+x59 <=1 
C1193: x48+x64 <=1 
C1194: x48+x65 <=1 
C1195: x48+x66-y48_66 <=1 
C1196: x49+x50 <=1 
C1197: x49+x51 <=1 
C1198: x49+x52-y49_52 <=1 
C1199: x49+x56 <=1 
C1200: x49+x60-y49_60 <=1 
C1201: x49+x62 <=1 
C1202: x49+x64-y49_64 <=1 
C1203: x49+x66 <=1 
C1204: x50+x51 <=1 
C1205: x50+x52-y50_52 <=1 
C1206: x50+x56-y50_56 <=1 
C1207: x50+x57 <=1 
C1208: x50+x58-y50_58 <=1 
C1209: x50+x59-y50_59 <=1 
C1210: x50+x60 <=1 
C1211: x50+x62 <=1 
C1212: x50+x63-y50_63 <=1 
C1213: x50+x65-y50_65 <=1 
C1214: x50+x66 <=1 
C1215: x51+x53-y51_53 <=1 
C1216: x51+x55-y51_55 <=1 
C1217: x51+x57-y51_57 <=1 
C1218: x51+x58-y51_58 <=1 
C1219: x51+x59-y51_59 <=1 
C1220: x51+x60 <=1 
C1221: x51+x62 <=1 
C1222: x51+x64 <=1 
C1223: x51+x66 <=1 
C1224: x52+x53 <=1 
C1225: x52+x58-y52_58 <=1 
C1226: x52+x59-y52_59 <=1 
C1227: x52+x64 <=1 
C1228: x52+x66 <=1 
C1229: x53+x54 <=1 
C1230: x53+x57 <=1 
C1231: x53+x58 <=1 
C1232: x53+x60 <=1 
C1233: x53+x62-y53_62 <=1 
C1234: x53+x63-y53_63 <=1 
C1235: x53+x64 <=1 
C1236: x53+x65 <=1 
C1237: x53+x66 <=1 
C1238: x54+x55 <=1 
C1239: x54+x56-y54_56 <=1 
C1240: x54+x57 <=1 
C1241: x54+x58 <=1 
C1242: x54+x59-y54_59 <=1 
C1243: x54+x61 <=1 
C1244: x54+x62 <=1 
C1245: x54+x63 <=1 
C1246: x54+x64-y54_64 <=1 
C1247: x54+x65 <=1 
C1248: x55+x56-y55_56 <=1 
C1249: x55+x58-y55_58 <=1 
C1250: x55+x60 <=1 
C1251: x55+x62 <=1 
C1252: x55+x63 <=1 
C1253: x55+x64 <=1 
C1254: x55+x66-y55_66 <=1 
C1255: x56+x59-y56_59 <=1 
C1256: x56+x61 <=1 
C1257: x56+x62 <=1 
C1258: x56+x63 <=1 
C1259: x56+x64 <=1 
C1260: x56+x65-y56_65 <=1 
C1261: x56+x66 <=1 
C1262: x57+x60-y57_60 <=1 
C1263: x57+x61-y57_61 <=1 
C1264: x57+x63-y57_63 <=1 
C1265: x57+x64 <=1 
C1266: x57+x66-y57_66 <=1 
C1267: x58+x60-y58_60 <=1 
C1268: x58+x61 <=1 
C1269: x58+x62 <=1 
C1270: x58+x65 <=1 
C1271: x58+x66-y58_66 <=1 
C1272: x59+x60 <=1 
C1273: x59+x61 <=1 
C1274: x59+x62 <=1 
C1275: x59+x63 <=1 
C1276: x59+x64-y59_64 <=1 
C1277: x59+x65-y59_65 <=1 
C1278: x60+x62-y60_62 <=1 
C1279: x60+x66 <=1 
C1280: x61+x64 <=1 
C1281: x61+x65 <=1 
C1282: x62+x63-y62_63 <=1 
C1283: x62+x64 <=1 
C1284: x62+x65-y62_65 <=1 
C1285: x63+x64 <=1 
C1286: x64+x65 <=1 
C1287: x64+x66-y64_66 <=1 
C1288: x65+x66-y65_66 <=1 

binary
x0
x1
x2
x3
x4
x5
x6
x7
x8
x9
x10
x11
x12
x13
x14
x15
x16
x17
x18
x19
x20
x21
x22
x23
x24
x25
x26
x27
x28
x29
x30
x31
x32
x33
x34
x35
x36
x37
x38
x39
x40
x41
x42
x43
x44
x45
x46
x47
x48
x49
x50
x51
x52
x53
x54
x55
x56
x57
x58
x59
x60
x61
x62
x63
x64
x65
x66
