problem_generation/data/GISP/train/er_n=67_m=1288_p=0.60_SET2_setparam=100.00_alpha=0.50_112.sol
objective value:                                 1269
x0                                                  1 	(obj:100)
x6                                                  1 	(obj:100)
x8                                                  1 	(obj:100)
x12                                                 1 	(obj:100)
x17                                                 1 	(obj:100)
x21                                                 1 	(obj:100)
x22                                                 1 	(obj:100)
x23                                                 1 	(obj:100)
x24                                                 1 	(obj:100)
x25                                                 1 	(obj:100)
x30                                                 1 	(obj:100)
x33                                                 1 	(obj:100)
x64                                                 1 	(obj:100)
y0_23                                               1 	(obj:-1)
y22_23                                              1 	(obj:-1)
y24_64                                              1 	(obj:-1)
y17_25                                              1 	(obj:-1)
y21_22                                              1 	(obj:-1)
y6_33                                               1 	(obj:-1)
y6_23                                               1 	(obj:-1)
y21_30                                              1 	(obj:-1)
y12_25                                              1 	(obj:-1)
y0_64                                               1 	(obj:-1)
y12_24                                              1 	(obj:-1)
y24_25                                              1 	(obj:-1)
y8_22                                               1 	(obj:-1)
y0_22                                               1 	(obj:-1)
y33_64                                              1 	(obj:-1)
y0_8                                                1 	(obj:-1)
y8_21                                               1 	(obj:-1)
y25_64                                              1 	(obj:-1)
y21_25                                              1 	(obj:-1)
y21_24                                              1 	(obj:-1)
y6_12                                               1 	(obj:-1)
y24_33                                              1 	(obj:-1)
y17_21                                              1 	(obj:-1)
y8_25                                               1 	(obj:-1)
y0_25                                               1 	(obj:-1)
y12_17                                              1 	(obj:-1)
y8_24                                               1 	(obj:-1)
y8_33                                               1 	(obj:-1)
y8_23                                               1 	(obj:-1)
y22_24                                              1 	(obj:-1)
y22_33                                              1 	(obj:-1)
